sat
(:SPACER-cex-depth                 2
 :SPACER-inductive-gen             1
 :SPACER-inductive-gen-weaken-fail 1
 :SPACER-max-depth                 2
 :SPACER-max-query-lvl             2
 :SPACER-num-active-lemmas         2
 :SPACER-num-is_invariant          2
 :SPACER-num-lemmas                3
 :SPACER-num-pobs                  2
 :SPACER-num-queries               2
 :SPACER-num-reach-queries         2
 :SPACER-num-reuse-reach-facts     1
 :added-eqs                        58
 :arith-assert-diseq               22
 :arith-assert-lower               98
 :arith-assert-upper               80
 :arith-bound-prop                 10
 :arith-conflicts                  4
 :arith-eq-adapter                 32
 :arith-fixed-eqs                  8
 :arith-num-rows                   18
 :arith-pivots                     28
 :arith-row-summations             24
 :arith-tableau-max-columns        54
 :arith-tableau-max-rows           18
 :conflicts                        18
 :decisions                        90
 :del-clause                       28
 :final-checks                     12
 :iuc_solver.num_proxies           2
 :max-memory                       30.21
 :memory                           30.21
 :mk-bool-var                      248
 :mk-clause                        246
 :num-allocs                       4345707
 :num-checks                       24
 :pool_solver.checks               12
 :pool_solver.checks.sat           6
 :propagations                     270
 :rlimit-count                     4042
 :time                             0.02
 :time.pool_solver.smt.total       0.00
 :time.spacer.init_rules           0.00
 :time.spacer.solve                0.01
 :time.spacer.solve.reach          0.01)
(:max-memory   30.21
 :memory       30.21
 :num-allocs   4345707
 :rlimit-count 4042
 :time         0.02
 :total-time   0.04)
